# Node Net
885   1
 31   1
883   1
510   2
241   2
 90   2
 25   3
 20   3
541   3
540   4
887   4
810   4
571   5
879   5
  4   5
661   6
 26   6
  7   6
  3   7
211   7
601   8
301   8
841   9
900   9
871  10
121  10
